
set COMUNI := C1 C2 C3 C4 C5 C6 C7 C8;
set ASL := C1 C2 C3 C4 C5 C6;

param distanza: C1 C2 C3 C4 C5 C6 C7 C8 :=
C1 0 5 3 7 3 7 5 6
C2 5 0 3 3 2 3 5 2
C3 3 3 0 6 4 4 2 4
C4 7 3 6 0 4 1 7 3
C5 3 2 4 4 0 5 7 3
C6 7 3 4 1 5 0 6 3
C7 5 5 2 7 7 6 0 5
C8 6 2 4 3 3 3 5 0;

param p := 2;
